# Objective value = 5938.08
I_0_0 1318
I_0_1 1604
I_0_2 1.4119999999999998e+03
I_0_3 1.9569999999999998e+03
I_1_0 150
I_1_1 75
I_1_2 150
I_1_3 75
I_2_0 36
I_2_1 36
I_2_2 18
I_2_3 0
I_3_0 72
I_3_1 72
I_3_2 7.1999999999999687e+01
I_3_3 0
I_4_0 100
I_4_1 100
I_4_2 50
I_4_3 -1.7763568394002505e-15
I_5_0 75
I_5_1 0
I_5_2 75
I_5_3 0
I_6_0 39
I_6_1 39
I_6_2 39
I_6_3 0
I_7_0 118
I_7_1 59
I_7_2 1.1800000000000001e+02
I_7_3 5.9000000000000014e+01
I_8_0 77
I_8_1 0
I_8_2 77
I_8_3 0
I_9_0 54
I_9_1 54
I_9_2 5.4000000000000014e+01
I_9_3 0
I_10_0 52
I_10_1 52
I_10_2 2.6000000000000291e+01
I_10_3 -5.3290705182007514e-15
q_1_0_0 0
q_1_0_1 150
q_1_0_2 7.1054273576010019e-15
q_1_1_0 0
q_1_1_1 -3.1441516057384433e-13
q_1_1_2 0
q_1_2_0 0
q_1_2_1 3.1441516057384433e-13
q_1_2_2 0
q_2_0_0 18
q_2_0_1 0
q_2_0_2 0
q_2_1_0 0
q_2_1_1 0
q_2_1_2 0
q_2_2_0 0
q_2_2_1 0
q_2_2_2 0
q_3_0_0 72
q_3_0_1 72
q_3_0_2 1.7763568394002505e-15
q_3_1_0 0
q_3_1_1 0
q_3_1_2 3.1619151741324458e-13
q_3_2_0 0
q_3_2_1 -3.1263880373444408e-13
q_3_2_2 0
q_4_0_0 50
q_4_0_1 0
q_4_0_2 4.1830223392962314e-16
q_4_1_0 0
q_4_1_1 -3.5527136788005009e-15
q_4_1_2 0
q_4_2_0 0
q_4_2_1 0
q_4_2_2 0
q_5_0_0 0
q_5_0_1 0
q_5_0_2 0
q_5_1_0 0
q_5_1_1 -2.1316282072803006e-14
q_5_1_2 0
q_5_2_0 0
q_5_2_1 1.5000000000000003e+02
q_5_2_2 0
q_6_0_0 39
q_6_0_1 0
q_6_0_2 0
q_6_1_0 0
q_6_1_1 39
q_6_1_2 -2.7711166694643907e-13
q_6_2_0 0
q_6_2_1 0
q_6_2_2 2.7711166694643907e-13
q_7_0_0 0
q_7_0_1 0
q_7_0_2 0
q_7_1_0 0
q_7_1_1 -1.4210854715202004e-14
q_7_1_2 0
q_7_2_0 0
q_7_2_1 1.1800000000000003e+02
q_7_2_2 0
q_8_0_0 0
q_8_0_1 0
q_8_0_2 0
q_8_1_0 0
q_8_1_1 154
q_8_1_2 0
q_8_2_0 0
q_8_2_1 0
q_8_2_2 0
q_9_0_0 54
q_9_0_1 0
q_9_0_2 0
q_9_1_0 0
q_9_1_1 54
q_9_1_2 -4.2632564145606011e-14
q_9_2_0 0
q_9_2_1 7.1054273576010019e-15
q_9_2_2 0
q_10_0_0 26
q_10_0_1 0
q_10_0_2 0
q_10_1_0 0
q_10_1_1 -1.0658141036401503e-14
q_10_1_2 0
q_10_2_0 0
q_10_2_1 2.7711166694643907e-13
q_10_2_2 -2.7711166694643907e-13
y_0_0_0 1
y_0_0_1 1
y_0_0_2 0
y_0_1_0 0
y_0_1_1 1
y_0_1_2 0
y_0_2_0 0
y_0_2_1 1
y_0_2_2 0
y_1_0_0 0
y_1_0_1 1
y_1_0_2 0
y_1_1_0 0
y_1_1_1 0
y_1_1_2 0
y_1_2_0 0
y_1_2_1 0
y_1_2_2 0
y_2_0_0 1
y_2_0_1 0
y_2_0_2 0
y_2_1_0 0
y_2_1_1 0
y_2_1_2 0
y_2_2_0 0
y_2_2_1 0
y_2_2_2 0
y_3_0_0 1
y_3_0_1 1
y_3_0_2 0
y_3_1_0 0
y_3_1_1 0
y_3_1_2 0
y_3_2_0 0
y_3_2_1 0
y_3_2_2 0
y_4_0_0 1
y_4_0_1 0
y_4_0_2 0
y_4_1_0 0
y_4_1_1 0
y_4_1_2 0
y_4_2_0 0
y_4_2_1 0
y_4_2_2 0
y_5_0_0 0
y_5_0_1 0
y_5_0_2 0
y_5_1_0 0
y_5_1_1 -1.6653345369377348e-16
y_5_1_2 0
y_5_2_0 0
y_5_2_1 1
y_5_2_2 0
y_6_0_0 1
y_6_0_1 0
y_6_0_2 0
y_6_1_0 0
y_6_1_1 1
y_6_1_2 0
y_6_2_0 0
y_6_2_1 0
y_6_2_2 0
y_7_0_0 0
y_7_0_1 0
y_7_0_2 0
y_7_1_0 0
y_7_1_1 -1.1102230246251565e-16
y_7_1_2 0
y_7_2_0 0
y_7_2_1 1
y_7_2_2 0
y_8_0_0 0
y_8_0_1 0
y_8_0_2 0
y_8_1_0 0
y_8_1_1 1
y_8_1_2 0
y_8_2_0 0
y_8_2_1 0
y_8_2_2 0
y_9_0_0 1
y_9_0_1 0
y_9_0_2 0
y_9_1_0 0
y_9_1_1 1.0000000000000002e+00
y_9_1_2 0
y_9_2_0 0
y_9_2_1 1.6653345369377348e-16
y_9_2_2 0
y_10_0_0 1
y_10_0_1 0
y_10_0_2 0
y_10_1_0 0
y_10_1_1 -2.2204460492503131e-16
y_10_1_2 0
y_10_2_0 0
y_10_2_1 0
y_10_2_2 0
x_0_1_0_0 0
x_0_1_0_1 1
x_0_1_0_2 0
x_0_1_1_0 0
x_0_1_1_1 0
x_0_1_1_2 0
x_0_1_2_0 2.7755575615628914e-17
x_0_1_2_1 0
x_0_1_2_2 0
x_0_2_0_0 1
x_0_2_0_1 0
x_0_2_0_2 0
x_0_2_1_0 0
x_0_2_1_1 2.2204460492503131e-16
x_0_2_1_2 0
x_0_2_2_0 0
x_0_2_2_1 0
x_0_2_2_2 0
x_0_3_0_0 1
x_0_3_0_1 1
x_0_3_0_2 0
x_0_3_1_0 0
x_0_3_1_1 -2.7755575615628914e-16
x_0_3_1_2 0
x_0_3_2_0 0
x_0_3_2_1 0
x_0_3_2_2 0
x_0_4_0_0 0
x_0_4_0_1 0
x_0_4_0_2 1.3877787807814457e-17
x_0_4_1_0 0
x_0_4_1_1 0
x_0_4_1_2 0
x_0_4_2_0 0
x_0_4_2_1 0
x_0_4_2_2 0
x_0_5_0_0 0
x_0_5_0_1 0
x_0_5_0_2 0
x_0_5_1_0 0
x_0_5_1_1 1.1102230246251565e-16
x_0_5_1_2 0
x_0_5_2_0 0
x_0_5_2_1 1
x_0_5_2_2 0
x_0_6_0_0 0
x_0_6_0_1 0
x_0_6_0_2 0
x_0_6_1_0 0
x_0_6_1_1 9.9999999999999967e-01
x_0_6_1_2 0
x_0_6_2_0 0
x_0_6_2_1 0
x_0_6_2_2 0
x_0_7_0_0 0
x_0_7_0_1 0
x_0_7_0_2 0
x_0_7_1_0 0
x_0_7_1_1 0
x_0_7_1_2 0
x_0_7_2_0 0
x_0_7_2_1 1
x_0_7_2_2 0
x_0_8_0_0 0
x_0_8_0_1 0
x_0_8_0_2 0
x_0_8_1_0 0
x_0_8_1_1 1
x_0_8_1_2 0
x_0_8_2_0 0
x_0_8_2_1 0
x_0_8_2_2 0
x_0_9_0_0 0
x_0_9_0_1 0
x_0_9_0_2 0
x_0_9_1_0 0
x_0_9_1_1 0
x_0_9_1_2 0
x_0_9_2_0 0
x_0_9_2_1 0
x_0_9_2_2 0
x_0_10_0_0 0
x_0_10_0_1 0
x_0_10_0_2 0
x_0_10_1_0 0
x_0_10_1_1 0
x_0_10_1_2 0
x_0_10_2_0 0
x_0_10_2_1 0
x_0_10_2_2 0
x_1_2_0_0 0
x_1_2_0_1 0
x_1_2_0_2 0
x_1_2_1_0 0
x_1_2_1_1 0
x_1_2_1_2 0
x_1_2_2_0 0
x_1_2_2_1 0
x_1_2_2_2 0
x_1_3_0_0 0
x_1_3_0_1 1
x_1_3_0_2 0
x_1_3_1_0 0
x_1_3_1_1 0
x_1_3_1_2 0
x_1_3_2_0 0
x_1_3_2_1 0
x_1_3_2_2 0
x_1_4_0_0 0
x_1_4_0_1 0
x_1_4_0_2 0
x_1_4_1_0 0
x_1_4_1_1 0
x_1_4_1_2 0
x_1_4_2_0 0
x_1_4_2_1 0
x_1_4_2_2 0
x_1_5_0_0 0
x_1_5_0_1 0
x_1_5_0_2 0
x_1_5_1_0 0
x_1_5_1_1 0
x_1_5_1_2 0
x_1_5_2_0 0
x_1_5_2_1 0
x_1_5_2_2 0
x_1_6_0_0 0
x_1_6_0_1 0
x_1_6_0_2 0
x_1_6_1_0 0
x_1_6_1_1 0
x_1_6_1_2 0
x_1_6_2_0 0
x_1_6_2_1 0
x_1_6_2_2 0
x_1_7_0_0 0
x_1_7_0_1 0
x_1_7_0_2 0
x_1_7_1_0 0
x_1_7_1_1 0
x_1_7_1_2 0
x_1_7_2_0 0
x_1_7_2_1 0
x_1_7_2_2 0
x_1_8_0_0 0
x_1_8_0_1 0
x_1_8_0_2 0
x_1_8_1_0 0
x_1_8_1_1 0
x_1_8_1_2 0
x_1_8_2_0 0
x_1_8_2_1 0
x_1_8_2_2 0
x_1_9_0_0 0
x_1_9_0_1 0
x_1_9_0_2 0
x_1_9_1_0 0
x_1_9_1_1 0
x_1_9_1_2 0
x_1_9_2_0 0
x_1_9_2_1 0
x_1_9_2_2 0
x_1_10_0_0 0
x_1_10_0_1 0
x_1_10_0_2 0
x_1_10_1_0 0
x_1_10_1_1 0
x_1_10_1_2 0
x_1_10_2_0 0
x_1_10_2_1 0
x_1_10_2_2 0
x_2_3_0_0 0
x_2_3_0_1 0
x_2_3_0_2 0
x_2_3_1_0 0
x_2_3_1_1 0
x_2_3_1_2 0
x_2_3_2_0 0
x_2_3_2_1 0
x_2_3_2_2 0
x_2_4_0_0 1
x_2_4_0_1 0
x_2_4_0_2 0
x_2_4_1_0 0
x_2_4_1_1 -2.2204460492503131e-16
x_2_4_1_2 0
x_2_4_2_0 0
x_2_4_2_1 0
x_2_4_2_2 0
x_2_5_0_0 0
x_2_5_0_1 0
x_2_5_0_2 0
x_2_5_1_0 0
x_2_5_1_1 0
x_2_5_1_2 0
x_2_5_2_0 0
x_2_5_2_1 0
x_2_5_2_2 0
x_2_6_0_0 0
x_2_6_0_1 0
x_2_6_0_2 0
x_2_6_1_0 0
x_2_6_1_1 0
x_2_6_1_2 0
x_2_6_2_0 0
x_2_6_2_1 0
x_2_6_2_2 0
x_2_7_0_0 0
x_2_7_0_1 0
x_2_7_0_2 0
x_2_7_1_0 0
x_2_7_1_1 0
x_2_7_1_2 0
x_2_7_2_0 0
x_2_7_2_1 0
x_2_7_2_2 0
x_2_8_0_0 0
x_2_8_0_1 0
x_2_8_0_2 0
x_2_8_1_0 0
x_2_8_1_1 0
x_2_8_1_2 0
x_2_8_2_0 0
x_2_8_2_1 0
x_2_8_2_2 0
x_2_9_0_0 0
x_2_9_0_1 0
x_2_9_0_2 0
x_2_9_1_0 0
x_2_9_1_1 0
x_2_9_1_2 0
x_2_9_2_0 0
x_2_9_2_1 0
x_2_9_2_2 0
x_2_10_0_0 0
x_2_10_0_1 0
x_2_10_0_2 0
x_2_10_1_0 0
x_2_10_1_1 0
x_2_10_1_2 0
x_2_10_2_0 0
x_2_10_2_1 0
x_2_10_2_2 0
x_3_4_0_0 0
x_3_4_0_1 0
x_3_4_0_2 0
x_3_4_1_0 0
x_3_4_1_1 0
x_3_4_1_2 0
x_3_4_2_0 0
x_3_4_2_1 0
x_3_4_2_2 0
x_3_5_0_0 0
x_3_5_0_1 0
x_3_5_0_2 0
x_3_5_1_0 0
x_3_5_1_1 0
x_3_5_1_2 0
x_3_5_2_0 0
x_3_5_2_1 0
x_3_5_2_2 0
x_3_6_0_0 0
x_3_6_0_1 0
x_3_6_0_2 0
x_3_6_1_0 0
x_3_6_1_1 2.7755575615628914e-16
x_3_6_1_2 0
x_3_6_2_0 0
x_3_6_2_1 0
x_3_6_2_2 0
x_3_7_0_0 0
x_3_7_0_1 0
x_3_7_0_2 0
x_3_7_1_0 0
x_3_7_1_1 0
x_3_7_1_2 0
x_3_7_2_0 0
x_3_7_2_1 0
x_3_7_2_2 0
x_3_8_0_0 0
x_3_8_0_1 0
x_3_8_0_2 0
x_3_8_1_0 0
x_3_8_1_1 0
x_3_8_1_2 0
x_3_8_2_0 0
x_3_8_2_1 0
x_3_8_2_2 0
x_3_9_0_0 1
x_3_9_0_1 0
x_3_9_0_2 0
x_3_9_1_0 0
x_3_9_1_1 0
x_3_9_1_2 0
x_3_9_2_0 0
x_3_9_2_1 0
x_3_9_2_2 0
x_3_10_0_0 0
x_3_10_0_1 0
x_3_10_0_2 0
x_3_10_1_0 0
x_3_10_1_1 0
x_3_10_1_2 0
x_3_10_2_0 0
x_3_10_2_1 0
x_3_10_2_2 0
x_4_5_0_0 0
x_4_5_0_1 0
x_4_5_0_2 0
x_4_5_1_0 0
x_4_5_1_1 0
x_4_5_1_2 0
x_4_5_2_0 0
x_4_5_2_1 0
x_4_5_2_2 0
x_4_6_0_0 0
x_4_6_0_1 0
x_4_6_0_2 0
x_4_6_1_0 0
x_4_6_1_1 2.2204460492503131e-16
x_4_6_1_2 0
x_4_6_2_0 0
x_4_6_2_1 0
x_4_6_2_2 0
x_4_7_0_0 0
x_4_7_0_1 0
x_4_7_0_2 0
x_4_7_1_0 0
x_4_7_1_1 0
x_4_7_1_2 0
x_4_7_2_0 0
x_4_7_2_1 0
x_4_7_2_2 0
x_4_8_0_0 0
x_4_8_0_1 0
x_4_8_0_2 0
x_4_8_1_0 0
x_4_8_1_1 0
x_4_8_1_2 0
x_4_8_2_0 0
x_4_8_2_1 0
x_4_8_2_2 0
x_4_9_0_0 -2.7755575615628914e-16
x_4_9_0_1 0
x_4_9_0_2 0
x_4_9_1_0 0
x_4_9_1_1 0
x_4_9_1_2 0
x_4_9_2_0 0
x_4_9_2_1 0
x_4_9_2_2 0
x_4_10_0_0 9.9999999999999989e-01
x_4_10_0_1 0
x_4_10_0_2 0
x_4_10_1_0 0
x_4_10_1_1 0
x_4_10_1_2 0
x_4_10_2_0 0
x_4_10_2_1 0
x_4_10_2_2 0
x_5_6_0_0 0
x_5_6_0_1 0
x_5_6_0_2 0
x_5_6_1_0 0
x_5_6_1_1 -4.4408920985006262e-16
x_5_6_1_2 0
x_5_6_2_0 0
x_5_6_2_1 0
x_5_6_2_2 0
x_5_7_0_0 0
x_5_7_0_1 0
x_5_7_0_2 0
x_5_7_1_0 0
x_5_7_1_1 0
x_5_7_1_2 0
x_5_7_2_0 0
x_5_7_2_1 1
x_5_7_2_2 0
x_5_8_0_0 0
x_5_8_0_1 0
x_5_8_0_2 0
x_5_8_1_0 0
x_5_8_1_1 0
x_5_8_1_2 0
x_5_8_2_0 0
x_5_8_2_1 0
x_5_8_2_2 0
x_5_9_0_0 0
x_5_9_0_1 0
x_5_9_0_2 0
x_5_9_1_0 0
x_5_9_1_1 0
x_5_9_1_2 0
x_5_9_2_0 0
x_5_9_2_1 1.6653345369377348e-16
x_5_9_2_2 0
x_5_10_0_0 0
x_5_10_0_1 0
x_5_10_0_2 0
x_5_10_1_0 0
x_5_10_1_1 0
x_5_10_1_2 0
x_5_10_2_0 0
x_5_10_2_1 0
x_5_10_2_2 0
x_6_7_0_0 0
x_6_7_0_1 0
x_6_7_0_2 0
x_6_7_1_0 0
x_6_7_1_1 0
x_6_7_1_2 0
x_6_7_2_0 0
x_6_7_2_1 0
x_6_7_2_2 0
x_6_8_0_0 0
x_6_8_0_1 0
x_6_8_0_2 0
x_6_8_1_0 0
x_6_8_1_1 5.5511151231257827e-17
x_6_8_1_2 0
x_6_8_2_0 0
x_6_8_2_1 0
x_6_8_2_2 0
x_6_9_0_0 1
x_6_9_0_1 0
x_6_9_0_2 0
x_6_9_1_0 0
x_6_9_1_1 1.0000000000000004e+00
x_6_9_1_2 0
x_6_9_2_0 0
x_6_9_2_1 0
x_6_9_2_2 0
x_6_10_0_0 1
x_6_10_0_1 0
x_6_10_0_2 0
x_6_10_1_0 0
x_6_10_1_1 -4.4408920985006262e-16
x_6_10_1_2 0
x_6_10_2_0 0
x_6_10_2_1 0
x_6_10_2_2 0
x_7_8_0_0 0
x_7_8_0_1 0
x_7_8_0_2 0
x_7_8_1_0 0
x_7_8_1_1 0
x_7_8_1_2 0
x_7_8_2_0 0
x_7_8_2_1 0
x_7_8_2_2 0
x_7_9_0_0 0
x_7_9_0_1 0
x_7_9_0_2 0
x_7_9_1_0 0
x_7_9_1_1 -2.2204460492503131e-16
x_7_9_1_2 0
x_7_9_2_0 0
x_7_9_2_1 1.6653345369377348e-16
x_7_9_2_2 0
x_7_10_0_0 0
x_7_10_0_1 0
x_7_10_0_2 0
x_7_10_1_0 0
x_7_10_1_1 0
x_7_10_1_2 0
x_7_10_2_0 0
x_7_10_2_1 0
x_7_10_2_2 0
x_8_9_0_0 0
x_8_9_0_1 0
x_8_9_0_2 0
x_8_9_1_0 0
x_8_9_1_1 1
x_8_9_1_2 0
x_8_9_2_0 0
x_8_9_2_1 0
x_8_9_2_2 0
x_8_10_0_0 0
x_8_10_0_1 0
x_8_10_0_2 0
x_8_10_1_0 0
x_8_10_1_1 0
x_8_10_1_2 0
x_8_10_2_0 0
x_8_10_2_1 0
x_8_10_2_2 0
x_9_10_0_0 5.5511151231257827e-17
x_9_10_0_1 0
x_9_10_0_2 0
x_9_10_1_0 0
x_9_10_1_1 0
x_9_10_1_2 0
x_9_10_2_0 0
x_9_10_2_1 0
x_9_10_2_2 0
